c nombre: 12
c densidad: 0.1
p edges 100 489
e 1 15
e 1 16
e 1 21
e 1 23
e 1 24
e 1 31
e 1 35
e 1 37
e 1 48
e 2 4
e 2 20
e 2 46
e 2 56
e 2 84
e 2 92
e 3 19
e 3 37
e 3 48
e 3 58
e 3 83
e 3 84
e 3 91
e 3 95
e 4 20
e 4 31
e 4 38
e 4 44
e 4 73
e 4 100
e 5 33
e 5 42
e 5 55
e 5 63
e 5 68
e 5 81
e 5 85
e 5 96
e 5 100
e 6 10
e 6 11
e 6 12
e 6 20
e 6 35
e 6 46
e 6 56
e 6 93
e 6 98
e 7 22
e 7 25
e 7 87
e 7 93
e 7 99
e 8 33
e 8 49
e 8 67
e 8 72
e 8 75
e 8 98
e 8 100
e 9 17
e 9 26
e 9 27
e 9 52
e 9 77
e 10 28
e 10 35
e 10 41
e 10 49
e 10 50
e 10 53
e 10 58
e 10 69
e 10 83
e 10 99
e 11 12
e 11 26
e 11 27
e 11 36
e 11 55
e 11 90
e 11 94
e 11 99
e 12 13
e 12 17
e 12 20
e 12 31
e 12 45
e 12 52
e 12 74
e 12 98
e 12 100
e 13 25
e 13 33
e 13 43
e 13 56
e 13 70
e 13 78
e 13 80
e 13 95
e 14 19
e 14 24
e 14 45
e 14 48
e 14 71
e 14 72
e 14 83
e 14 98
e 15 19
e 15 35
e 15 40
e 15 61
e 15 63
e 15 74
e 15 87
e 15 100
e 16 31
e 16 38
e 16 42
e 16 43
e 16 49
e 16 58
e 16 84
e 16 88
e 16 96
e 16 97
e 17 23
e 17 46
e 17 55
e 17 61
e 17 84
e 17 93
e 18 47
e 18 54
e 18 59
e 18 64
e 18 69
e 18 73
e 18 94
e 19 20
e 19 34
e 19 35
e 19 39
e 19 51
e 19 53
e 19 57
e 19 83
e 19 92
e 20 23
e 20 28
e 20 41
e 20 55
e 20 67
e 20 71
e 20 74
e 20 80
e 20 93
e 20 99
e 21 28
e 21 44
e 21 50
e 21 53
e 21 66
e 21 80
e 21 88
e 22 29
e 22 34
e 22 38
e 22 41
e 22 50
e 22 62
e 22 65
e 22 68
e 22 78
e 23 24
e 23 30
e 23 34
e 23 48
e 23 55
e 23 80
e 23 83
e 23 84
e 23 87
e 23 100
e 24 33
e 24 37
e 24 67
e 24 77
e 24 81
e 24 86
e 24 94
e 25 37
e 25 45
e 25 52
e 25 56
e 25 62
e 25 68
e 25 72
e 25 80
e 25 89
e 26 45
e 26 79
e 26 80
e 26 82
e 26 97
e 27 29
e 27 30
e 27 41
e 27 46
e 27 47
e 27 58
e 27 61
e 27 70
e 27 72
e 27 79
e 27 80
e 27 82
e 27 84
e 28 37
e 28 41
e 28 46
e 28 48
e 28 56
e 28 65
e 28 75
e 28 80
e 28 88
e 28 91
e 28 92
e 28 100
e 29 37
e 29 40
e 29 42
e 29 63
e 29 83
e 29 89
e 29 90
e 29 93
e 29 97
e 30 38
e 30 62
e 30 67
e 30 74
e 30 76
e 30 94
e 31 33
e 31 51
e 31 63
e 31 99
e 32 52
e 32 86
e 32 87
e 32 97
e 33 34
e 33 45
e 33 47
e 33 58
e 33 72
e 33 79
e 33 81
e 33 94
e 33 95
e 34 38
e 34 45
e 34 55
e 34 85
e 34 93
e 35 43
e 35 47
e 35 49
e 35 62
e 35 68
e 35 75
e 35 78
e 35 88
e 36 56
e 36 57
e 36 60
e 36 75
e 37 44
e 37 48
e 37 56
e 37 62
e 37 67
e 37 70
e 37 81
e 37 83
e 37 89
e 37 92
e 38 42
e 38 49
e 38 52
e 38 53
e 38 63
e 38 66
e 38 70
e 38 73
e 38 82
e 38 85
e 38 91
e 39 47
e 39 61
e 39 75
e 39 90
e 39 94
e 39 95
e 40 48
e 40 55
e 40 68
e 40 86
e 41 46
e 41 48
e 41 76
e 41 79
e 41 81
e 41 90
e 41 99
e 42 57
e 42 78
e 42 82
e 42 93
e 42 95
e 43 48
e 43 49
e 43 52
e 43 55
e 43 61
e 43 74
e 43 89
e 43 92
e 44 50
e 44 69
e 44 73
e 44 75
e 44 82
e 45 47
e 45 62
e 45 74
e 46 61
e 46 66
e 46 68
e 47 52
e 47 69
e 47 79
e 48 72
e 48 81
e 48 94
e 48 95
e 49 60
e 49 66
e 49 73
e 49 84
e 50 59
e 50 70
e 50 71
e 51 59
e 51 60
e 51 61
e 51 66
e 51 67
e 51 69
e 51 71
e 51 86
e 51 88
e 51 93
e 51 94
e 51 97
e 51 98
e 51 100
e 52 55
e 52 59
e 52 72
e 52 84
e 53 65
e 53 68
e 53 91
e 53 92
e 54 60
e 54 62
e 54 68
e 54 70
e 54 74
e 54 77
e 54 87
e 54 89
e 55 69
e 55 79
e 55 87
e 55 94
e 56 64
e 56 65
e 56 66
e 56 74
e 56 81
e 57 74
e 57 81
e 57 93
e 57 94
e 58 61
e 58 67
e 58 69
e 58 70
e 58 77
e 58 86
e 59 67
e 59 79
e 59 85
e 59 89
e 59 96
e 59 99
e 60 61
e 60 82
e 60 98
e 60 99
e 60 100
e 61 84
e 61 88
e 61 91
e 61 97
e 62 64
e 62 70
e 62 82
e 62 86
e 63 81
e 63 93
e 63 96
e 63 100
e 64 68
e 64 93
e 64 99
e 65 90
e 66 83
e 67 70
e 67 82
e 67 91
e 68 79
e 68 83
e 69 79
e 69 84
e 69 89
e 69 97
e 70 76
e 70 79
e 70 92
e 71 74
e 71 80
e 72 82
e 72 84
e 72 95
e 73 81
e 73 83
e 73 91
e 74 82
e 74 84
e 75 77
e 75 91
e 76 89
e 76 99
e 77 84
e 77 88
e 77 90
e 77 92
e 77 100
e 78 82
e 78 87
e 79 81
e 79 100
e 80 84
e 80 86
e 80 91
e 80 100
e 81 88
e 81 100
e 82 100
e 83 92
e 84 86
e 84 90
e 84 95
e 85 100
e 86 90
e 86 96
e 86 100
e 87 88
e 87 90
e 89 94
e 89 100
e 90 91
e 90 94
e 90 100
e 94 97
